Problem:    
Rows:       260
Columns:    89 (72 integer, 72 binary)
Non-zeros:  812
Status:     INTEGER OPTIMAL
Objective:  value = 34.389633 (MINimum)

   No.   Row name        Activity     Lower bound   Upper bound
------ ------------    ------------- ------------- -------------
     1 r.5                   1034.39             0               
     2 r.6                  -987.711      -991.768               
     3 r.7                   34.3896             0               
     4 r.8                   12.2887      -980.838               
     5 r.9                   34.3896             0               
     6 r.10                 -991.623      -991.791               
     7 r.11                  1034.39             0               
     8 r.12                 -974.593      -980.621               
     9 r.13                  34.3896             0               
    10 r.14                  -999.55      -999.719               
    11 r.15                  1034.39             0               
    12 r.16                 -997.948      -999.231               
    13 r.17                  34.3896             0               
    14 r.18                 -999.382      -999.551               
    15 r.19                  1034.39             0               
    16 r.20                 -998.717      -998.885               
    17 r.21                  1034.39             0               
    18 r.22                 -995.944      -996.112               
    19 r.23                  34.3896             0               
    20 r.24                  12.2887      -990.783               
    21 r.25                  1034.39             0               
    22 r.26                 -999.831      -999.831               
    23 r.27                  34.3896             0               
    24 r.28                   0.1686       -999.57               
    25 r.29                  1034.39             0               
    26 r.30                  -965.61      -991.017               
    27 r.31                  34.3896             0               
    28 r.32                  34.3896      -976.643               
    29 r.33                  1034.39             0               
    30 r.34                 -974.593      -986.882               
    31 r.35                  34.3896             0               
    32 r.36                  34.3896      -968.032               
    33 r.37                        1             1             = 
    34 r.38                        1             1             = 
    35 r.39                        1             1             = 
    36 r.40                        1             1             = 
    37 r.41                        1             1             = 
    38 r.42                        1             1             = 
    39 r.43                        1             1             = 
    40 r.44                        1             1             = 
    41 r.45                     1001             2               
    42 r.46                    -1001         -1001               
    43 r.47                  996.089      -991.791               
    44 r.48                     1001             2               
    45 r.49                    -1001         -1001               
    46 r.50                  2013.12      -980.621               
    47 r.51                     1001             2               
    48 r.52                    -1001         -1001               
    49 r.53                  988.161      -999.719               
    50 r.54                     1001             2               
    51 r.55                    -1001         -1001               
    52 r.56                  1989.76      -999.231               
    53 r.57                     1001             2               
    54 r.58                    -1001         -1001               
    55 r.59                  988.329      -999.551               
    56 r.60                     1001             2               
    57 r.61                    -1001         -1001               
    58 r.62                  1988.99      -998.885               
    59 r.63                        2             2               
    60 r.64                       -2         -1001               
    61 r.65                  -8.2325      -996.112               
    62 r.66                     1000             2               
    63 r.67                    -1000         -1001               
    64 r.68                     2000      -990.783               
    65 r.69                  -987.88      -991.768               
    66 r.70                  12.1201      -980.838               
    67 r.71                  -987.88      -991.768               
    68 r.72                  12.1201      -980.838               
    69 r.73                 -977.899      -991.017               
    70 r.74                  22.1009      -976.643               
    71 r.75                 -977.899      -991.017               
    72 r.76                  22.1009      -976.643               
    73 r.77                 -986.882      -986.882               
    74 r.78                  22.1009      -968.032               
    75 r.79                 -986.882      -986.882               
    76 r.80                  22.1009      -968.032               
    77 r.81                     1001             2               
    78 r.82                    -1001         -1001               
    79 r.83                  3003.91        8.2325               
    80 r.84                     1001             2               
    81 r.85                    -1001         -1001               
    82 r.86                  1986.88       19.1618               
    83 r.87                     1000             2               
    84 r.88                    -1000         -1001               
    85 r.89                  1992.07      -999.719               
    86 r.90                        2             2               
    87 r.91                       -2         -1001               
    88 r.92                 -23.3553      -999.231               
    89 r.93                     1000             2               
    90 r.94                    -1000         -1001               
    91 r.95                  1992.24      -999.551               
    92 r.96                        2             2               
    93 r.97                       -2         -1001               
    94 r.98                 -24.1238      -998.885               
    95 r.99                     1001             2               
    96 r.100                   -1001         -1001               
    97 r.101                 2995.68      -996.112               
    98 r.102                    1001             2               
    99 r.103                   -1001         -1001               
   100 r.104                 1986.88      -990.783               
   101 r.105                -991.791      -991.791               
   102 r.106                -974.762      -980.621               
   103 r.107                -991.791      -991.791               
   104 r.108                -974.762      -980.621               
   105 r.109                 26.0123      -991.017               
   106 r.110                 1026.01      -976.643               
   107 r.111                -991.017      -991.017               
   108 r.112                 8.98262      -976.643               
   109 r.113                    1001             2               
   110 r.114                   -1001         -1001               
   111 r.115                 3017.03      -986.882               
   112 r.116                    1001             2               
   113 r.117                   -1001         -1001               
   114 r.118                 2008.98      -968.032               
   115 r.119                    1001             2               
   116 r.120                   -1001         -1001               
   117 r.121                 3011.84        8.2325               
   118 r.122                    1001             2               
   119 r.123                   -1001         -1001               
   120 r.124                 2010.24       19.1618               
   121 r.125                    1000             2               
   122 r.126                   -1000         -1001               
   123 r.127                 2007.93       8.20877               
   124 r.128                       2             2               
   125 r.129                      -2         -1001               
   126 r.130                 23.3553        19.379               
   127 r.131                    1000             2               
   128 r.132                   -1000         -1001               
   129 r.133                 2000.17      -999.551               
   130 r.134                       2             2               
   131 r.135                      -2         -1001               
   132 r.136               -0.768552      -998.885               
   133 r.137                    1001             2               
   134 r.138                   -1001         -1001               
   135 r.139                 3003.61      -996.112               
   136 r.140                    1001             2               
   137 r.141                   -1001         -1001               
   138 r.142                 2010.24      -990.783               
   139 r.143                -999.719      -999.719               
   140 r.144                -998.117      -999.231               
   141 r.145                -999.719      -999.719               
   142 r.146                -998.117      -999.231               
   143 r.147                 33.9398      -991.017               
   144 r.148                 1033.94      -976.643               
   145 r.149                -967.662      -991.017               
   146 r.150                 32.3379      -976.643               
   147 r.151                 24.9572      -986.882               
   148 r.152                 1033.94      -968.032               
   149 r.153                -976.645      -986.882               
   150 r.154                 32.3379      -968.032               
   151 r.155                    1001             2               
   152 r.156                   -1001         -1001               
   153 r.157                 3011.67        8.2325               
   154 r.158                    1001             2               
   155 r.159                   -1001         -1001               
   156 r.160                 2011.01       19.1618               
   157 r.161                    1000             2               
   158 r.162                   -1000         -1001               
   159 r.163                 2007.76       8.20877               
   160 r.164                       2             2               
   161 r.165                      -2         -1001               
   162 r.166                 24.1238        19.379               
   163 r.167                    1000             2               
   164 r.168                   -1000         -1001               
   165 r.169                 1999.83      0.281244               
   166 r.170                       2             2               
   167 r.171                      -2         -1001               
   168 r.172                0.768552      0.768552               
   169 r.173                    1001             2               
   170 r.174                   -1001         -1001               
   171 r.175                 3003.44      -996.112               
   172 r.176                    1001             2               
   173 r.177                   -1001         -1001               
   174 r.178                 2011.01      -990.783               
   175 r.179                -999.551      -999.551               
   176 r.180                -998.885      -998.885               
   177 r.181                -999.551      -999.551               
   178 r.182                -998.885      -998.885               
   179 r.183                 33.7721      -991.017               
   180 r.184                 1033.77      -976.643               
   181 r.185                -966.894      -991.017               
   182 r.186                 33.1064      -976.643               
   183 r.187                    1001             2               
   184 r.188                   -1001         -1001               
   185 r.189                 3024.79      -986.882               
   186 r.190                    1001             2               
   187 r.191                   -1001         -1001               
   188 r.192                 2033.11      -968.032               
   189 r.193                       2             2               
   190 r.194                      -2         -1001               
   191 r.195                  8.2325        8.2325               
   192 r.196                    1000             2               
   193 r.197                   -1000         -1001               
   194 r.198                    2000       19.1618               
   195 r.199                    1001             2               
   196 r.200                   -1001         -1001               
   197 r.201                 1004.32       8.20877               
   198 r.202                    1001             2               
   199 r.203                   -1001         -1001               
   200 r.204                 2013.12        19.379               
   201 r.205                    1001             2               
   202 r.206                   -1001         -1001               
   203 r.207                 996.394      0.281244               
   204 r.208                    1001             2               
   205 r.209                   -1001         -1001               
   206 r.210                 1989.76      0.768552               
   207 r.211                    1001             2               
   208 r.212                   -1001         -1001               
   209 r.213                 996.561      0.448933               
   210 r.214                    1001             2               
   211 r.215                   -1001         -1001               
   212 r.216                 1988.99        1.1146               
   213 r.217                -996.112      -996.112               
   214 r.218                 12.1201      -990.783               
   215 r.219                -996.112      -996.112               
   216 r.220                 12.1201      -990.783               
   217 r.221                       2             2               
   218 r.222                      -2         -1001               
   219 r.223                -969.667      -991.017               
   220 r.224                    1000             2               
   221 r.225                   -1000         -1001               
   222 r.226                  2022.1      -976.643               
   223 r.227                -978.649      -986.882               
   224 r.228                 30.3334      -968.032               
   225 r.229                -986.882      -986.882               
   226 r.230                 22.1009      -968.032               
   227 r.231                -965.779      -991.017               
   228 r.232                  34.221      -976.643               
   229 r.233                -965.779      -991.017               
   230 r.234                  34.221      -976.643               
   231 r.235                       2             2               
   232 r.236                      -2         -1001               
   233 r.237                 969.667       3.88761               
   234 r.238                    1000             2               
   235 r.239                   -1000         -1001               
   236 r.240                  1977.9       9.21734               
   237 r.241                       2             2               
   238 r.242                      -2         -1001               
   239 r.243                -8.98262      -986.882               
   240 r.244                    1000             2               
   241 r.245                   -1000         -1001               
   242 r.246                    2000      -968.032               
   243 r.247                    1001             2               
   244 r.248                   -1001         -1001               
   245 r.249                  982.97       8.20877               
   246 r.250                    1001             2               
   247 r.251                   -1001         -1001               
   248 r.252                 1991.02        19.379               
   249 r.253                    1001             2               
   250 r.254                   -1001         -1001               
   251 r.255                 975.211      0.448933               
   252 r.256                    1001             2               
   253 r.257                   -1001         -1001               
   254 r.258                 1966.89        1.1146               
   255 r.259                       2             2               
   256 r.260                      -2         -1001               
   257 r.261                 8.98262       8.98262               
   258 r.262                    1000             2               
   259 r.263                   -1000         -1001               
   260 r.264                    2000       23.3568               

   No. Column name       Activity     Lower bound   Upper bound
------ ------------    ------------- ------------- -------------
     1 tt                    34.3896             0               
     2 s_1_1        *              1             0             1 
     3 t_1_1                 22.1009             0               
     4 s_1_8        *              1             0             1 
     5 s_1_7        *              1             0             1 
     6 s_2_1        *              0             0             1 
     7 t_2_1                 22.1009             0               
     8 s_2_8        *              0             0             1 
     9 s_2_7        *              0             0             1 
    10 s_1_2        *              0             0             1 
    11 t_1_2                 1026.01             0               
    12 s_2_2        *              1             0             1 
    13 t_2_2                 8.98262             0               
    14 s_1_3        *              0             0             1 
    15 t_1_3                 1033.94             0               
    16 s_2_3        *              1             0             1 
    17 t_2_3                 32.3379             0               
    18 s_1_4        *              0             0             1 
    19 t_1_4                 1033.77             0               
    20 s_2_4        *              1             0             1 
    21 t_2_4                 33.1064             0               
    22 s_1_5        *              1             0             1 
    23 t_1_5                 30.3334             0               
    24 s_2_5        *              0             0             1 
    25 t_2_5                 22.1009             0               
    26 s_1_6        *              1             0             1 
    27 t_1_6                  34.221             0               
    28 s_2_6        *              0             0             1 
    29 t_2_6                  34.221             0               
    30 t_1_7                       0             0               
    31 t_2_7                       0             0               
    32 t_1_8                 8.98262             0               
    33 t_2_8                       0             0               
    34 r_1_1_2      *              1             0             1 
    35 u_1_1_2      *              0             0             1 
    36 r_2_1_2      *              1             0             1 
    37 u_2_1_2      *              0             0             1 
    38 r_1_1_3      *              1             0             1 
    39 u_1_1_3      *              0             0             1 
    40 r_2_1_3      *              1             0             1 
    41 u_2_1_3      *              0             0             1 
    42 r_1_1_4      *              1             0             1 
    43 u_1_1_4      *              0             0             1 
    44 r_2_1_4      *              1             0             1 
    45 u_2_1_4      *              0             0             1 
    46 r_1_1_5      *              0             0             1 
    47 u_1_1_5      *              0             0             1 
    48 r_2_1_5      *              1             0             1 
    49 u_2_1_5      *              0             0             1 
    50 r_1_2_3      *              1             0             1 
    51 u_1_2_3      *              0             0             1 
    52 r_2_2_3      *              0             0             1 
    53 u_2_2_3      *              0             0             1 
    54 r_1_2_4      *              1             0             1 
    55 u_1_2_4      *              0             0             1 
    56 r_2_2_4      *              0             0             1 
    57 u_2_2_4      *              0             0             1 
    58 r_1_2_5      *              1             0             1 
    59 u_1_2_5      *              0             0             1 
    60 r_2_2_5      *              1             0             1 
    61 u_2_2_5      *              0             0             1 
    62 r_1_2_8      *              1             0             1 
    63 u_1_2_8      *              0             0             1 
    64 r_2_2_8      *              1             0             1 
    65 u_2_2_8      *              0             0             1 
    66 r_1_3_4      *              1             0             1 
    67 u_1_3_4      *              0             0             1 
    68 r_2_3_4      *              0             0             1 
    69 u_2_3_4      *              0             0             1 
    70 r_1_3_5      *              1             0             1 
    71 u_1_3_5      *              0             0             1 
    72 r_2_3_5      *              1             0             1 
    73 u_2_3_5      *              0             0             1 
    74 r_1_4_5      *              1             0             1 
    75 u_1_4_5      *              0             0             1 
    76 r_2_4_5      *              1             0             1 
    77 u_2_4_5      *              0             0             1 
    78 r_1_4_8      *              1             0             1 
    79 u_1_4_8      *              0             0             1 
    80 r_2_4_8      *              1             0             1 
    81 u_2_4_8      *              0             0             1 
    82 r_1_5_7      *              0             0             1 
    83 u_1_5_7      *              1             0             1 
    84 r_2_5_7      *              1             0             1 
    85 u_2_5_7      *              0             0             1 
    86 r_1_7_8      *              0             0             1 
    87 u_1_7_8      *              0             0             1 
    88 r_2_7_8      *              1             0             1 
    89 u_2_7_8      *              0             0             1 

Integer feasibility conditions:

KKT.PE: max.abs.err = 4.55e-13 on row 111
        max.rel.err = 7.51e-17 on row 111
        High quality

KKT.PB: max.abs.err = 1.14e-13 on row 213
        max.rel.err = 1.88e-16 on row 168
        High quality

End of output
